7
	1 2	3 1	1 1	1 5	1 3	2 1	1 4
0	1	 1	 0	 0	 0	 0	 0	 
1	0	 1	 1	 0	 0	 0	 0	 
2	0	 1	 1	 0	 0	 0	 0	 
3	0	 1	 1	 0	 0	 0	 0	 
4	0	 1	 1	 0	 0	 0	 0	 
5	0	 1	 1	 0	 0	 0	 0	 
6	0	 1	 1	 0	 0	 0	 0	 
7	0	 1	 1	 0	 0	 0	 0	 
8	0	 1	 1	 0	 0	 0	 0	 
9	0	 0	 0	 0	 0	 0	 0	 
10	0	 0	 0	 0	 0	 0	 1	 
11	0	 1	 1	 0	 0	 0	 0	 
12	0	 1	 1	 0	 0	 0	 0	 
13	0	 1	 1	 0	 0	 0	 0	 
14	0	 1	 1	 0	 0	 0	 0	 
15	0	 1	 1	 0	 0	 0	 0	 
16	0	 0	 0	 0	 0	 1	 0	 
17	0	 1	 1	 0	 0	 0	 0	 
18	0	 1	 1	 0	 0	 0	 0	 
19	0	 1	 1	 0	 0	 0	 0	 
20	0	 1	 1	 0	 0	 0	 0	 
21	0	 1	 1	 0	 0	 0	 0	 
22	0	 1	 1	 0	 0	 0	 0	 
23	0	 1	 1	 0	 0	 0	 0	 
24	0	 0	 0	 0	 0	 1	 1	 
25	0	 1	 1	 0	 0	 0	 0	 
26	0	 1	 1	 0	 0	 0	 0	 
27	0	 1	 1	 0	 0	 0	 0	 
28	0	 1	 1	 0	 0	 0	 0	 
29	0	 1	 1	 0	 0	 0	 0	 
30	0	 1	 1	 0	 0	 0	 0	 
31	0	 1	 1	 0	 0	 0	 0	 
32	0	 0	 0	 0	 1	 0	 0	 
33	0	 1	 1	 0	 0	 0	 0	 
34	0	 1	 1	 0	 0	 0	 0	 
35	0	 1	 1	 0	 0	 0	 0	 
36	0	 1	 1	 0	 0	 0	 0	 
37	0	 1	 1	 0	 0	 0	 0	 
38	0	 1	 1	 0	 0	 0	 0	 
39	0	 1	 1	 0	 0	 0	 0	 
40	0	 0	 0	 0	 1	 0	 1	 
41	0	 1	 1	 0	 0	 0	 0	 
42	1	 0	 0	 0	 0	 0	 0	 
43	1	 0	 0	 0	 0	 0	 0	 
44	1	 0	 0	 0	 0	 0	 0	 
45	1	 0	 0	 0	 0	 0	 0	 
46	1	 0	 0	 0	 0	 0	 0	 
47	1	 0	 0	 0	 0	 0	 0	 
48	1	 0	 0	 0	 0	 0	 0	 
49	1	 0	 0	 0	 0	 0	 0	 
50	0	 0	 0	 0	 1	 1	 0	 
51	1	 0	 0	 0	 0	 0	 0	 
52	1	 0	 0	 0	 0	 0	 0	 
53	1	 0	 0	 0	 0	 0	 0	 
54	1	 0	 0	 0	 0	 0	 0	 
55	1	 0	 0	 0	 0	 0	 0	 
56	1	 0	 0	 0	 0	 0	 0	 
57	1	 0	 0	 0	 0	 0	 0	 
58	0	 0	 0	 0	 1	 1	 1	 
59	1	 0	 0	 0	 0	 0	 0	 
60	1	 0	 0	 0	 0	 0	 0	 
61	1	 0	 0	 0	 0	 0	 0	 
62	1	 0	 0	 0	 0	 0	 0	 
63	1	 0	 0	 0	 0	 0	 0	 
64	1	 0	 0	 0	 0	 0	 0	 
65	1	 0	 0	 0	 0	 0	 0	 
66	0	 0	 0	 1	 0	 0	 0	 
67	1	 0	 0	 0	 0	 0	 0	 
68	1	 0	 0	 0	 0	 0	 0	 
69	1	 0	 0	 0	 0	 0	 0	 
70	1	 0	 0	 0	 0	 0	 0	 
71	1	 0	 0	 0	 0	 0	 0	 
72	1	 0	 0	 0	 0	 0	 0	 
73	1	 0	 0	 0	 0	 0	 0	 
74	0	 0	 0	 1	 0	 0	 1	 
75	1	 0	 0	 0	 0	 0	 0	 
76	1	 0	 0	 0	 0	 0	 0	 
77	0	 0	 0	 1	 0	 1	 0	 
78	1	 0	 0	 0	 0	 0	 0	 
79	1	 0	 0	 0	 0	 0	 0	 
80	0	 0	 0	 1	 0	 1	 1	 
81	0	 1	 1	 1	 0	 0	 0	 
82	0	 1	 1	 1	 0	 0	 0	 
83	0	 1	 1	 1	 0	 0	 0	 
84	0	 1	 1	 1	 0	 0	 0	 
85	0	 1	 1	 1	 0	 0	 0	 
86	0	 0	 0	 1	 1	 0	 0	 
87	0	 0	 0	 0	 0	 1	 0	 
88	0	 0	 0	 0	 0	 1	 0	 
89	0	 0	 0	 0	 0	 1	 0	 
90	0	 0	 0	 0	 0	 1	 0	 
91	0	 0	 0	 0	 0	 1	 0	 
92	0	 0	 0	 0	 0	 1	 0	 
93	0	 0	 0	 0	 0	 1	 0	 
94	0	 0	 0	 1	 1	 0	 1	 
95	0	 0	 0	 0	 0	 1	 0	 
96	0	 0	 0	 0	 0	 1	 0	 
97	0	 0	 0	 0	 0	 1	 0	 
98	0	 0	 0	 0	 0	 1	 0	 
99	0	 0	 0	 0	 0	 1	 0	 
100	0	 0	 0	 0	 0	 1	 0	 
101	0	 0	 0	 0	 0	 1	 0	 
102	0	 0	 0	 1	 1	 1	 0	 
103	0	 0	 0	 0	 0	 1	 0	 
104	0	 0	 0	 0	 0	 1	 0	 
105	0	 0	 0	 0	 0	 1	 0	 
106	0	 0	 0	 0	 0	 1	 0	 
107	0	 0	 0	 0	 0	 1	 0	 
108	0	 0	 0	 0	 0	 1	 0	 
109	0	 0	 0	 0	 0	 1	 0	 
110	0	 0	 0	 1	 1	 1	 1	 
111	0	 0	 0	 0	 0	 1	 0	 
112	0	 0	 0	 0	 0	 1	 0	 
113	0	 0	 0	 0	 0	 1	 0	 
114	0	 0	 0	 0	 0	 1	 0	 
115	0	 0	 0	 0	 0	 1	 0	 
116	0	 0	 0	 0	 0	 1	 0	 
117	0	 0	 0	 0	 0	 1	 0	 
118	0	 0	 1	 0	 0	 0	 0	 
119	0	 0	 0	 0	 0	 1	 0	 
120	0	 0	 0	 0	 0	 1	 0	 
121	0	 0	 0	 0	 0	 1	 0	 
122	0	 0	 0	 0	 0	 1	 0	 
123	0	 0	 0	 0	 0	 1	 0	 
124	0	 0	 0	 0	 0	 1	 0	 
125	0	 0	 0	 0	 0	 1	 0	 
126	0	 0	 1	 0	 0	 0	 1	 
127	0	 0	 0	 0	 0	 1	 0	 
128	0	 0	 0	 0	 0	 1	 0	 
129	0	 0	 0	 0	 0	 1	 0	 
130	0	 0	 0	 0	 0	 1	 0	 
131	0	 0	 0	 0	 0	 1	 0	 
132	0	 0	 0	 0	 0	 1	 0	 
133	0	 0	 0	 0	 0	 1	 0	 
134	0	 0	 1	 0	 0	 1	 0	 
135	0	 0	 0	 0	 0	 1	 0	 
136	0	 0	 0	 0	 0	 1	 0	 
137	0	 0	 0	 0	 0	 1	 0	 
138	0	 0	 0	 0	 0	 1	 0	 
139	0	 0	 0	 0	 0	 1	 0	 
140	0	 0	 0	 0	 0	 1	 0	 
141	0	 0	 0	 0	 0	 1	 0	 
142	0	 0	 1	 0	 0	 1	 1	 
143	0	 0	 0	 0	 0	 1	 0	 
144	0	 0	 0	 0	 0	 1	 0	 
145	0	 0	 0	 0	 0	 1	 0	 
146	0	 0	 0	 0	 0	 1	 0	 
147	0	 0	 0	 0	 0	 1	 0	 
148	0	 0	 0	 0	 0	 1	 0	 
149	0	 0	 0	 0	 0	 1	 0	 
150	0	 0	 1	 0	 1	 0	 0	 
151	0	 0	 0	 0	 0	 1	 0	 
152	0	 0	 0	 0	 0	 1	 0	 
153	0	 0	 0	 0	 0	 1	 0	 
154	0	 0	 0	 0	 0	 1	 0	 
155	0	 0	 0	 0	 0	 1	 0	 
156	0	 0	 0	 0	 0	 1	 0	 
157	0	 0	 0	 0	 0	 1	 0	 
158	0	 0	 1	 0	 1	 0	 1	 
159	0	 0	 0	 0	 0	 1	 0	 
160	0	 0	 0	 0	 0	 1	 0	 
161	0	 0	 0	 0	 0	 1	 0	 
162	0	 0	 0	 0	 0	 1	 0	 
163	0	 0	 0	 0	 0	 1	 0	 
164	0	 0	 0	 0	 0	 1	 0	 
165	0	 0	 0	 0	 0	 1	 0	 
166	0	 0	 1	 0	 1	 1	 0	 
167	0	 0	 0	 0	 0	 1	 0	 
168	0	 0	 1	 0	 1	 1	 1	 
169	0	 0	 0	 0	 0	 1	 0	 
170	0	 0	 0	 0	 0	 1	 0	 
171	0	 0	 0	 0	 0	 1	 0	 
172	0	 0	 0	 0	 0	 1	 0	 
173	0	 0	 0	 0	 0	 1	 0	 
174	0	 0	 0	 0	 0	 1	 0	 
175	0	 0	 0	 0	 0	 1	 0	 
176	0	 0	 1	 1	 0	 0	 0	 
177	0	 0	 0	 0	 0	 1	 0	 
178	0	 0	 0	 0	 0	 1	 0	 
179	0	 0	 0	 0	 0	 1	 0	 
180	0	 0	 0	 0	 0	 1	 0	 
181	0	 0	 0	 0	 0	 1	 0	 
182	0	 0	 0	 0	 0	 1	 0	 
183	0	 0	 0	 0	 0	 1	 0	 
184	0	 0	 1	 1	 0	 0	 1	 
185	0	 0	 0	 0	 0	 1	 0	 
186	0	 0	 0	 0	 0	 1	 0	 
187	0	 0	 0	 0	 0	 1	 0	 
188	0	 0	 0	 0	 0	 1	 0	 
189	0	 0	 0	 0	 0	 1	 0	 
190	0	 0	 0	 0	 0	 1	 0	 
191	0	 0	 0	 0	 0	 1	 0	 
192	0	 0	 1	 1	 0	 1	 0	 
193	0	 0	 0	 0	 0	 1	 0	 
194	0	 0	 0	 0	 0	 1	 0	 
195	0	 0	 0	 0	 0	 1	 0	 
196	0	 0	 0	 0	 0	 1	 0	 
197	0	 0	 0	 0	 0	 1	 0	 
198	0	 0	 0	 0	 0	 1	 0	 
199	0	 0	 0	 0	 0	 1	 0	 
200	0	 0	 1	 1	 0	 1	 1	 
201	0	 0	 0	 0	 0	 1	 0	 
202	0	 0	 0	 0	 0	 1	 0	 
203	0	 0	 0	 0	 0	 1	 0	 
204	0	 0	 0	 0	 0	 1	 0	 
205	0	 0	 0	 0	 0	 1	 0	 
206	0	 0	 0	 0	 0	 1	 0	 
207	0	 0	 0	 0	 0	 1	 0	 
208	0	 0	 1	 1	 1	 0	 0	 
209	0	 0	 0	 0	 0	 1	 0	 
210	0	 1	 1	 0	 0	 1	 0	 
211	0	 1	 1	 0	 0	 1	 0	 
212	0	 1	 1	 0	 0	 1	 0	 
213	0	 1	 1	 0	 0	 1	 0	 
214	0	 0	 1	 1	 1	 0	 1	 
215	0	 0	 1	 1	 1	 1	 0	 
216	0	 1	 1	 0	 0	 1	 0	 
217	0	 1	 1	 0	 0	 1	 0	 
218	0	 0	 1	 1	 1	 1	 1	 
219	0	 1	 1	 0	 0	 1	 0	 
220	0	 1	 1	 0	 0	 1	 0	 
221	0	 1	 1	 0	 0	 1	 0	 
222	0	 1	 1	 0	 0	 1	 0	 
223	0	 1	 1	 0	 1	 1	 0	 
224	0	 1	 1	 0	 1	 1	 0	 
225	0	 1	 1	 0	 1	 1	 0	 
226	0	 1	 1	 0	 1	 1	 0	 
227	0	 1	 1	 0	 1	 1	 0	 
228	0	 1	 0	 0	 0	 0	 0	 
229	0	 1	 0	 0	 0	 0	 1	 
230	0	 0	 0	 0	 0	 0	 0	 
231	0	 0	 0	 0	 0	 0	 0	 
232	0	 0	 0	 0	 0	 0	 0	 
233	0	 0	 0	 0	 0	 0	 0	 
234	0	 0	 0	 0	 0	 0	 0	 
235	0	 0	 0	 0	 0	 0	 0	 
236	0	 0	 0	 0	 0	 0	 0	 
237	0	 1	 0	 0	 0	 1	 0	 
238	0	 1	 0	 0	 0	 1	 1	 
239	0	 0	 0	 0	 0	 0	 0	 
240	0	 1	 0	 0	 1	 0	 0	 
241	0	 0	 0	 0	 0	 0	 0	 
242	0	 0	 0	 0	 0	 0	 0	 
243	0	 0	 0	 0	 0	 0	 0	 
244	0	 0	 0	 0	 0	 0	 0	 
245	0	 0	 0	 0	 0	 0	 0	 
246	0	 0	 0	 0	 0	 0	 0	 
247	0	 0	 0	 0	 0	 0	 0	 
248	0	 1	 0	 0	 1	 0	 1	 
249	0	 0	 0	 0	 0	 0	 0	 
250	0	 0	 0	 0	 0	 0	 0	 
251	0	 0	 0	 0	 0	 0	 0	 
252	0	 0	 0	 0	 0	 0	 0	 
253	0	 0	 0	 0	 0	 0	 0	 
254	0	 0	 0	 0	 0	 0	 0	 
255	0	 0	 0	 0	 0	 0	 0	 
256	0	 1	 0	 0	 1	 1	 0	 
257	0	 0	 0	 0	 0	 0	 0	 
258	0	 0	 0	 0	 0	 0	 0	 
259	0	 0	 0	 0	 0	 0	 0	 
260	0	 0	 0	 0	 0	 0	 0	 
261	0	 0	 0	 0	 0	 0	 0	 
262	0	 0	 0	 0	 0	 0	 0	 
263	0	 1	 0	 0	 1	 1	 1	 
264	0	 0	 0	 0	 0	 0	 0	 
265	0	 0	 0	 0	 0	 0	 0	 
266	0	 0	 0	 0	 0	 0	 0	 
267	0	 0	 0	 0	 0	 0	 0	 
268	0	 0	 0	 0	 0	 0	 0	 
269	0	 0	 0	 0	 0	 0	 0	 
270	0	 0	 0	 0	 0	 0	 0	 
271	0	 1	 0	 1	 0	 0	 0	 
272	0	 0	 0	 0	 0	 0	 0	 
273	0	 0	 0	 0	 0	 0	 0	 
274	0	 0	 0	 0	 0	 0	 0	 
275	0	 0	 0	 0	 0	 0	 0	 
276	0	 0	 0	 0	 0	 0	 0	 
277	0	 0	 0	 0	 0	 0	 0	 
278	0	 1	 0	 1	 0	 0	 1	 
279	0	 1	 1	 0	 0	 0	 0	 
280	0	 1	 1	 0	 0	 0	 0	 
281	0	 1	 0	 1	 0	 1	 0	 
282	0	 1	 1	 1	 0	 0	 0	 
283	0	 1	 1	 1	 0	 0	 0	 
284	0	 1	 1	 1	 0	 0	 0	 
285	0	 1	 1	 1	 0	 0	 0	 
286	0	 1	 1	 1	 0	 0	 0	 
287	0	 1	 1	 1	 0	 0	 0	 
288	0	 1	 1	 1	 0	 0	 0	 
289	0	 1	 0	 1	 0	 1	 1	 
290	0	 1	 1	 1	 0	 0	 0	 
291	0	 1	 1	 1	 0	 0	 0	 
292	0	 1	 1	 1	 0	 0	 0	 
293	0	 1	 1	 1	 0	 0	 0	 
294	0	 1	 1	 1	 0	 0	 0	 
295	0	 1	 1	 1	 0	 0	 0	 
